;; ===================== PROJECTED CANON (QE) =====================
;; Each clause below is entailed by Proj = ∃W.F over the canonical vocabulary.
;; Units appear first for clarity; OR-clauses (SAT-filtered) follow.
;; ==================================================================

;; Unit Bool constraints (entailed)
(assert (not patient_is_taking_alprazolam_containing_product_in_oral_dose_form_now))
(assert (not patient_is_taking_astemizole_containing_product_now))
(assert (not patient_is_taking_atorvastatin_containing_product_now))
(assert (not patient_is_taking_cisapride_containing_product_now))
(assert (not patient_is_taking_ergot_alkaloid_containing_product_now))
(assert (not patient_is_taking_lovastatin_containing_product_now))
(assert (not patient_is_taking_pimozide_containing_product_now))
(assert (not patient_is_taking_simvastatin_containing_product_now))
(assert (not patient_is_taking_terfenadine_containing_product_now))
(assert (not patient_has_diagnosis_of_congenital_long_qt_syndrome_inthehistory))
(assert (not patient_has_finding_of_macrolide_adverse_reaction_inthehistory))
(assert (not patient_has_hypersensitivity_to_telithromycin_inthehistory))
(assert (not patient_has_finding_of_healthcare_associated_infectious_disease_now))
(assert (not patient_is_pregnant_now))
(assert (not patient_is_breastfeeding_now))
(assert (not patients_breastfeeding_is_positive_now))
